
******************************************************************************
This program contains Ipopt, a library for large-scale nonlinear optimization.
 Ipopt is released as open source code under the Eclipse Public License (EPL).
         For more information visit http://projects.coin-or.org/Ipopt

This version of Ipopt was compiled from source code available at
    https://github.com/IDAES/Ipopt as part of the Institute for the Design of
    Advanced Energy Systems Process Systems Engineering Framework (IDAES PSE
    Framework) Copyright (c) 2018-2019. See https://github.com/IDAES/idaes-pse.

This version of Ipopt was compiled using HSL, a collection of Fortran codes
    for large-scale scientific computation.  All technical papers, sales and
    publicity material resulting from use of the HSL codes within IPOPT must
    contain the following acknowledgement:
        HSL, a collection of Fortran codes for large-scale scientific
        computation. See http://www.hsl.rl.ac.uk.
******************************************************************************

This is Ipopt version 3.13.2, running with linear solver ma27.

Number of nonzeros in equality constraint Jacobian...:     1336
Number of nonzeros in inequality constraint Jacobian.:        0
Number of nonzeros in Lagrangian Hessian.............:     1696

Total number of variables............................:      512
                     variables with only lower bounds:      128
                variables with lower and upper bounds:      320
                     variables with only upper bounds:        0
Total number of equality constraints.................:      508
Total number of inequality constraints...............:        0
        inequality constraints with only lower bounds:        0
   inequality constraints with lower and upper bounds:        0
        inequality constraints with only upper bounds:        0

iter    objective    inf_pr   inf_du lg(mu)  ||d||  lg(rg) alpha_du alpha_pr  ls
   0  0.0000000e+00 2.57e+00 9.10e-15  -1.0 0.00e+00    -  0.00e+00 0.00e+00   0
   1  1.1610911e-01 4.34e-01 1.50e+03  -1.0 4.25e+04    -  6.54e-01 9.90e-01h  1
   2  1.2149857e-01 3.81e-02 5.34e+01  -1.0 2.64e+03    -  9.37e-01 9.90e-01h  1
   3  1.2152762e-01 6.86e-04 5.28e+00  -1.0 5.29e+01    -  9.90e-01 9.90e-01h  1
   4  1.2033030e-01 1.29e-05 2.10e+04  -1.0 2.61e+03    -  9.88e-01 9.90e-01h  1
   5  1.3039968e-01 2.11e-06 1.24e+04  -1.0 5.92e+03    -  9.90e-01 9.90e-01H  1
   6  1.2071629e-01 7.63e-05 7.48e+07  -3.8 5.82e+03    -  9.97e-01 5.00e-01f  2
   7  1.1735159e-01 3.11e-07 5.65e+04  -3.8 2.98e+03    -  1.00e+00 1.00e+00H  1
In iteration 7, 32 Slacks too small, adjusting variable bounds
   8  1.1735162e-01 1.18e-09 3.01e+08  -3.8 1.20e+01    -  1.00e+00 1.00e+00h  1
   9  1.1735162e-01 1.09e-09 1.00e+12  -3.8 1.97e-03    -  1.00e+00 5.00e-01h  2
iter    objective    inf_pr   inf_du lg(mu)  ||d||  lg(rg) alpha_du alpha_pr  ls
  10  1.1735162e-01 1.54e-09 1.73e-04  -3.8 9.78e-04    -  1.00e+00 1.00e+00H  1
  11  1.1735159e-01 1.10e-09 2.49e+03  -9.0 9.62e+00    -  1.00e+00 1.00e+00H  1
  12  1.1735159e-01 1.77e-09 2.22e-10  -9.0 2.41e-03    -  1.00e+00 1.00e+00h  1

Number of Iterations....: 12

                                   (scaled)                 (unscaled)
Objective...............:   1.1735158513097489e-01    1.1735158513097489e-01
Dual infeasibility......:   2.2222332430314436e-10    2.2222332430314436e-10
Constraint violation....:   1.7682508790528573e-09    1.7682508790528573e-09
Complementarity.........:   9.0909093067486432e-10    9.0909093067486432e-10
Overall NLP error.......:   1.7682508790528573e-09    1.7682508790528573e-09


Number of objective function evaluations             = 24
Number of objective gradient evaluations             = 13
Number of equality constraint evaluations            = 24
Number of inequality constraint evaluations          = 0
Number of equality constraint Jacobian evaluations   = 13
Number of inequality constraint Jacobian evaluations = 0
Number of Lagrangian Hessian evaluations             = 12
Total CPU secs in IPOPT (w/o function evaluations)   =      0.045
Total CPU secs in NLP function evaluations           =      0.443

EXIT: Optimal Solution Found.
